Maximize

29.5 b0 + 33.0 b1 + 41.0 b2 + 10 b3 + 38.0 b4 + 41.0 b5 + 10 b6 + 59.5 b7 + 202.0 b8 + 10 b9 + 230.0 b10 + 54.5 b11 + 84.0 b12 + 99.5 b13 + 82.5 b14 + 31.0 b15.v0 + 31.0 b15.v1 + 460.5 b16.v0 + 458.5 b16.v1 + 163.5 b17 + 79.5 b18.v0 + 77.5 b18.v1 + 144.5 b19.v0 + 142.5 b19.v1 + 144.5 b19.v2 + 153.0 b20 + 68.0 b21 + 195.5 b22.v0 + 195.5 b22.v1 + 6 b23 + 10 b24 + 41.5 b25


Subject to

\ === tcfg constraints ===
dSta_0 = 1
b0 - dSta_0 = 0
b0 - d0_1 = 0
b1 - d0_1 = 0
b1 - d1_4 - d1_2 = 0
b2 - d1_2 = 0
b2 - d2_3 = 0
b3 - d2_3 = 0
b4 - d1_4 = 0
b4 - d4_7 - d4_5 = 0
b5 - d4_5 = 0
b5 - d5_6 = 0
b6 - d5_6 = 0
b7 - d4_7 = 0
b7 - d7_10 - d7_8 = 0
b8 - d7_8 = 0
b8 - d8_9 = 0
b9 - d8_9 = 0
b10 - d7_10 = 0
b10 - d10_19 - d10_11 = 0
b11 - d10_11 = 0
b11 - d11_19 - d11_12 = 0
b12 - d11_12 = 0
b12 - d12_25 - d12_13 = 0
b13 - d12_13 = 0
b13 - d13_15 - d13_14 = 0
b14 - d13_14 = 0
b14 - d14_15 = 0
b15 - d13_15 - d14_15 = 0
b15 - d15_16 = 0
b16 - d15_16 - d25_16 = 0
b16 - d16_18 - d16_17 = 0
b17 - d16_17 = 0
b17 - d17_18 = 0
b18 - d16_18 - d17_18 = 0
b18 - d18_19 = 0
b19 - d10_19 - d18_19 - d11_19 = 0
b19 - d19_20 = 0
b20 - d19_20 = 0
b20 - d20_22 - d20_21 = 0
b21 - d20_21 = 0
b21 - d21_22 = 0
b22 - d20_22 - d21_22 = 0
b22 - d22_23 = 0
b23 - d22_23 = 0
b23 - d23_24 = 0
b24 - d23_24 = 0
b25 - d12_25 = 0
b25 - d25_16 = 0


\ === header constraints ===



\ === context constraints ===
b15 - b15.v0 - b15.v1 = 0
b15.v0 - d13_15 = 0
b15.v1 - d14_15 = 0
b16 - b16.v0 - b16.v1 = 0
b16.v0 - d15_16 = 0
b16.v1 - d25_16 = 0
b18 - b18.v0 - b18.v1 = 0
b18.v0 - d16_18 = 0
b18.v1 - d17_18 = 0
b19 - b19.v0 - b19.v1 - b19.v2 = 0
b19.v0 - d10_19 = 0
b19.v1 - d18_19 = 0
b19.v2 - d11_19 = 0
b22 - b22.v0 - b22.v1 = 0
b22.v0 - d20_22 = 0
b22.v1 - d21_22 = 0


\ === inst cache constraints ===



\ === data cache constraints ===



Generals


b0
b1
b2
b3
b4
b5
b6
b7
b8
b9
b10
b11
b12
b13
b14
b15
b15.v0
b15.v1
b16
b16.v0
b16.v1
b17
b18
b18.v0
b18.v1
b19
b19.v0
b19.v1
b19.v2
b20
b21
b22
b22.v0
b22.v1
b23
b24
b25
d0_1
d1_2
d1_4
d2_3
d4_5
d4_7
d5_6
d7_8
d7_10
d8_9
d10_11
d10_19
d11_12
d11_19
d12_13
d12_25
d13_14
d13_15
d14_15
d15_16
d16_17
d16_18
d17_18
d18_19
d19_20
d20_21
d20_22
d21_22
d22_23
d23_24
d25_16
dSta_0


End
\ total cons: 81    total vars: 69
